10	5
0	3	2	3	1
1	2	7	11
2	2	10	8
3	1	4
4	1	6
5	3	10	7	9
6	2	5	8
7	1	11
8	1	11
9	1	11
10	1	11
11	0
0	0	0	0	0	0	0
1	7	3	5	5	1	0
2	2	5	4	0	0	3
3	7	0	2	2	4	4
4	6	4	0	2	0	1
5	4	1	5	0	0	4
6	5	3	3	3	1	2
7	5	0	3	0	0	2
8	5	1	4	5	2	5
9	8	4	2	2	5	4
10	7	0	3	5	3	1
11	0	0	0	0	0	0
5	5	5	5	5
